NAME 
OBJSENSE MAX
ROWS
 N  OBJ
 L  packing[0]
 L  packing[1]
 L  packing[2]
 L  packing[3]
 L  packing[4]
 L  packing[5]
 L  packing[6]
 L  packing[7]
 L  packing[8]
 L  packing[9]
 L  packing[10]
 L  packing[11]
 L  packing[12]
 L  packing[13]
 L  packing[14]
 L  packing[15]
 L  packing[16]
 L  packing[17]
 L  packing[18]
 L  packing[19]
 L  packing[20]
 L  packing[21]
 L  packing[22]
 L  packing[23]
 L  packing[24]
 L  packing[25]
 L  packing[26]
 L  packing[27]
 L  packing[28]
 L  packing[29]
 L  packing[30]
 L  packing[31]
 L  packing[32]
 L  packing[33]
 L  packing[34]
 L  packing[35]
 L  packing[36]
 L  packing[37]
 L  packing[38]
 L  packing[39]
 L  packing[40]
 L  packing[41]
 L  packing[42]
 L  packing[43]
 L  packing[44]
 L  packing[45]
 L  packing[46]
 L  packing[47]
 L  packing[48]
 L  packing[49]
 L  R51     
COLUMNS
    MARKER    'MARKER'                 'INTORG'
    x[1]      OBJ       161
    x[1]      packing[0]  17
    x[1]      packing[1]  78
    x[1]      packing[2]  4
    x[1]      packing[3]  88
    x[1]      packing[4]  92
    x[1]      packing[5]  59
    x[1]      packing[6]  129
    x[1]      packing[7]  105
    x[1]      packing[8]  123
    x[1]      packing[9]  168
    x[1]      packing[10]  30
    x[1]      packing[11]  48
    x[1]      packing[12]  191
    x[1]      packing[13]  42
    x[1]      packing[14]  142
    x[1]      packing[15]  138
    x[1]      packing[16]  190
    x[1]      packing[17]  36
    x[1]      packing[21]  139
    x[1]      packing[25]  103
    x[1]      packing[27]  198
    x[1]      packing[28]  3
    x[1]      packing[29]  179
    x[1]      packing[30]  55
    x[1]      packing[33]  192
    x[1]      packing[35]  87
    x[1]      packing[36]  126
    x[1]      packing[37]  136
    x[1]      packing[38]  187
    x[1]      packing[39]  17
    x[1]      packing[40]  90
    x[1]      packing[41]  127
    x[1]      packing[43]  61
    x[1]      packing[44]  99
    x[1]      packing[45]  189
    x[1]      packing[46]  80
    x[1]      packing[49]  51
    x[1]      R51       1
    x[2]      OBJ       22
    x[2]      packing[1]  13
    x[2]      packing[2]  69
    x[2]      packing[4]  133
    x[2]      packing[5]  175
    x[2]      packing[6]  21
    x[2]      packing[7]  82
    x[2]      packing[8]  3
    x[2]      packing[9]  130
    x[2]      packing[10]  166
    x[2]      packing[12]  34
    x[2]      packing[13]  34
    x[2]      packing[14]  144
    x[2]      packing[15]  43
    x[2]      packing[16]  34
    x[2]      packing[18]  63
    x[2]      packing[19]  192
    x[2]      packing[20]  123
    x[2]      packing[21]  61
    x[2]      packing[25]  7
    x[2]      packing[26]  99
    x[2]      packing[27]  172
    x[2]      packing[28]  185
    x[2]      packing[29]  47
    x[2]      packing[30]  14
    x[2]      packing[31]  199
    x[2]      packing[36]  181
    x[2]      packing[37]  49
    x[2]      packing[38]  102
    x[2]      packing[40]  51
    x[2]      packing[41]  41
    x[2]      packing[45]  18
    x[2]      packing[46]  139
    x[2]      packing[49]  8
    x[3]      OBJ       100
    x[3]      packing[0]  170
    x[3]      packing[2]  41
    x[3]      packing[5]  106
    x[3]      packing[7]  59
    x[3]      packing[8]  153
    x[3]      packing[9]  17
    x[3]      packing[10]  195
    x[3]      packing[11]  105
    x[3]      packing[13]  2
    x[3]      packing[14]  178
    x[3]      packing[15]  193
    x[3]      packing[16]  97
    x[3]      packing[17]  67
    x[3]      packing[19]  135
    x[3]      packing[20]  136
    x[3]      packing[21]  151
    x[3]      packing[22]  18
    x[3]      packing[24]  141
    x[3]      packing[25]  159
    x[3]      packing[26]  192
    x[3]      packing[27]  9
    x[3]      packing[28]  25
    x[3]      packing[29]  166
    x[3]      packing[30]  194
    x[3]      packing[31]  196
    x[3]      packing[32]  177
    x[3]      packing[33]  143
    x[3]      packing[34]  25
    x[3]      packing[35]  172
    x[3]      packing[36]  38
    x[3]      packing[37]  113
    x[3]      packing[38]  25
    x[3]      packing[39]  107
    x[3]      packing[43]  87
    x[3]      packing[44]  125
    x[3]      packing[45]  180
    x[3]      packing[46]  29
    x[3]      packing[47]  183
    x[3]      packing[48]  39
    x[3]      packing[49]  199
    x[4]      OBJ       174
    x[4]      packing[0]  1
    x[4]      packing[1]  116
    x[4]      packing[2]  189
    x[4]      packing[3]  93
    x[4]      packing[4]  9
    x[4]      packing[5]  63
    x[4]      packing[9]  75
    x[4]      packing[10]  66
    x[4]      packing[11]  59
    x[4]      packing[13]  105
    x[4]      packing[14]  148
    x[4]      packing[15]  67
    x[4]      packing[16]  154
    x[4]      packing[17]  168
    x[4]      packing[18]  116
    x[4]      packing[19]  134
    x[4]      packing[21]  48
    x[4]      packing[22]  99
    x[4]      packing[23]  141
    x[4]      packing[24]  169
    x[4]      packing[26]  164
    x[4]      packing[28]  90
    x[4]      packing[30]  107
    x[4]      packing[31]  12
    x[4]      packing[33]  75
    x[4]      packing[34]  182
    x[4]      packing[35]  67
    x[4]      packing[36]  93
    x[4]      packing[37]  42
    x[4]      packing[39]  99
    x[4]      packing[40]  36
    x[4]      packing[41]  91
    x[4]      packing[43]  186
    x[4]      packing[44]  56
    x[4]      packing[46]  94
    x[4]      packing[47]  197
    x[4]      packing[48]  171
    x[4]      packing[49]  11
    x[4]      R51       1
    x[5]      OBJ       83
    x[5]      packing[0]  186
    x[5]      packing[3]  113
    x[5]      packing[5]  134
    x[5]      packing[6]  182
    x[5]      packing[8]  195
    x[5]      packing[9]  73
    x[5]      packing[10]  149
    x[5]      packing[11]  165
    x[5]      packing[12]  41
    x[5]      packing[13]  114
    x[5]      packing[14]  43
    x[5]      packing[15]  50
    x[5]      packing[16]  88
    x[5]      packing[18]  74
    x[5]      packing[19]  92
    x[5]      packing[20]  193
    x[5]      packing[21]  154
    x[5]      packing[22]  150
    x[5]      packing[23]  138
    x[5]      packing[24]  61
    x[5]      packing[25]  42
    x[5]      packing[26]  151
    x[5]      packing[27]  50
    x[5]      packing[28]  11
    x[5]      packing[29]  33
    x[5]      packing[30]  152
    x[5]      packing[31]  42
    x[5]      packing[33]  183
    x[5]      packing[35]  155
    x[5]      packing[37]  44
    x[5]      packing[38]  113
    x[5]      packing[39]  188
    x[5]      packing[41]  10
    x[5]      packing[44]  132
    x[5]      packing[47]  122
    x[5]      packing[48]  182
    x[6]      OBJ       74
    x[6]      packing[0]  101
    x[6]      packing[1]  147
    x[6]      packing[2]  198
    x[6]      packing[3]  67
    x[6]      packing[4]  57
    x[6]      packing[6]  37
    x[6]      packing[7]  30
    x[6]      packing[8]  121
    x[6]      packing[11]  173
    x[6]      packing[12]  195
    x[6]      packing[15]  46
    x[6]      packing[17]  11
    x[6]      packing[18]  50
    x[6]      packing[19]  6
    x[6]      packing[20]  104
    x[6]      packing[21]  165
    x[6]      packing[22]  179
    x[6]      packing[23]  36
    x[6]      packing[24]  93
    x[6]      packing[25]  65
    x[6]      packing[26]  95
    x[6]      packing[27]  176
    x[6]      packing[28]  191
    x[6]      packing[29]  189
    x[6]      packing[31]  51
    x[6]      packing[33]  63
    x[6]      packing[34]  166
    x[6]      packing[36]  152
    x[6]      packing[37]  90
    x[6]      packing[38]  93
    x[6]      packing[39]  146
    x[6]      packing[41]  66
    x[6]      packing[43]  69
    x[6]      packing[44]  15
    x[6]      packing[45]  122
    x[6]      packing[47]  27
    x[6]      packing[48]  172
    x[6]      packing[49]  90
    x[7]      OBJ       198
    x[7]      packing[0]  162
    x[7]      packing[1]  43
    x[7]      packing[2]  124
    x[7]      packing[3]  37
    x[7]      packing[4]  25
    x[7]      packing[5]  197
    x[7]      packing[6]  51
    x[7]      packing[7]  13
    x[7]      packing[8]  22
    x[7]      packing[9]  39
    x[7]      packing[10]  126
    x[7]      packing[11]  9
    x[7]      packing[13]  75
    x[7]      packing[14]  27
    x[7]      packing[15]  177
    x[7]      packing[16]  24
    x[7]      packing[17]  39
    x[7]      packing[18]  107
    x[7]      packing[19]  79
    x[7]      packing[21]  21
    x[7]      packing[22]  95
    x[7]      packing[23]  20
    x[7]      packing[25]  142
    x[7]      packing[26]  68
    x[7]      packing[27]  177
    x[7]      packing[28]  152
    x[7]      packing[29]  199
    x[7]      packing[30]  105
    x[7]      packing[31]  99
    x[7]      packing[32]  79
    x[7]      packing[33]  33
    x[7]      packing[34]  63
    x[7]      packing[35]  37
    x[7]      packing[36]  61
    x[7]      packing[37]  41
    x[7]      packing[38]  6
    x[7]      packing[41]  14
    x[7]      packing[42]  19
    x[7]      packing[43]  114
    x[7]      packing[44]  25
    x[7]      packing[45]  59
    x[7]      packing[46]  124
    x[7]      packing[47]  180
    x[7]      packing[49]  180
    x[7]      R51       1
    x[8]      OBJ       166
    x[8]      packing[0]  41
    x[8]      packing[1]  150
    x[8]      packing[2]  195
    x[8]      packing[3]  70
    x[8]      packing[4]  50
    x[8]      packing[10]  18
    x[8]      packing[11]  63
    x[8]      packing[12]  30
    x[8]      packing[13]  144
    x[8]      packing[14]  138
    x[8]      packing[17]  72
    x[8]      packing[19]  137
    x[8]      packing[20]  75
    x[8]      packing[21]  132
    x[8]      packing[22]  189
    x[8]      packing[23]  162
    x[8]      packing[24]  135
    x[8]      packing[25]  45
    x[8]      packing[26]  178
    x[8]      packing[28]  155
    x[8]      packing[29]  174
    x[8]      packing[30]  54
    x[8]      packing[31]  199
    x[8]      packing[32]  58
    x[8]      packing[33]  188
    x[8]      packing[34]  159
    x[8]      packing[35]  176
    x[8]      packing[36]  148
    x[8]      packing[38]  173
    x[8]      packing[41]  95
    x[8]      packing[42]  132
    x[8]      packing[45]  34
    x[8]      packing[46]  178
    x[8]      packing[47]  158
    x[8]      packing[48]  44
    x[8]      packing[49]  108
    x[8]      R51       1
    x[9]      OBJ       28
    x[9]      packing[0]  46
    x[9]      packing[3]  51
    x[9]      packing[5]  81
    x[9]      packing[7]  195
    x[9]      packing[9]  173
    x[9]      packing[10]  106
    x[9]      packing[11]  18
    x[9]      packing[12]  49
    x[9]      packing[13]  98
    x[9]      packing[14]  170
    x[9]      packing[15]  40
    x[9]      packing[16]  101
    x[9]      packing[17]  187
    x[9]      packing[18]  194
    x[9]      packing[19]  141
    x[9]      packing[20]  175
    x[9]      packing[22]  57
    x[9]      packing[23]  168
    x[9]      packing[24]  86
    x[9]      packing[25]  162
    x[9]      packing[26]  51
    x[9]      packing[27]  66
    x[9]      packing[30]  185
    x[9]      packing[33]  58
    x[9]      packing[34]  162
    x[9]      packing[37]  60
    x[9]      packing[39]  159
    x[9]      packing[40]  52
    x[9]      packing[41]  40
    x[9]      packing[42]  177
    x[9]      packing[43]  116
    x[9]      packing[44]  141
    x[9]      packing[45]  139
    x[9]      packing[46]  57
    x[9]      packing[47]  169
    x[9]      packing[48]  198
    x[9]      packing[49]  174
    x[10]     OBJ       195
    x[10]     packing[0]  20
    x[10]     packing[3]  179
    x[10]     packing[5]  97
    x[10]     packing[6]  84
    x[10]     packing[8]  190
    x[10]     packing[9]  36
    x[10]     packing[10]  66
    x[10]     packing[11]  193
    x[10]     packing[13]  140
    x[10]     packing[15]  43
    x[10]     packing[16]  142
    x[10]     packing[17]  129
    x[10]     packing[18]  141
    x[10]     packing[19]  148
    x[10]     packing[20]  63
    x[10]     packing[21]  170
    x[10]     packing[23]  52
    x[10]     packing[24]  63
    x[10]     packing[25]  167
    x[10]     packing[26]  48
    x[10]     packing[27]  93
    x[10]     packing[28]  169
    x[10]     packing[29]  197
    x[10]     packing[30]  182
    x[10]     packing[31]  116
    x[10]     packing[32]  45
    x[10]     packing[33]  188
    x[10]     packing[34]  104
    x[10]     packing[35]  12
    x[10]     packing[37]  140
    x[10]     packing[39]  16
    x[10]     packing[40]  151
    x[10]     packing[41]  28
    x[10]     packing[42]  77
    x[10]     packing[43]  129
    x[10]     packing[44]  86
    x[10]     packing[45]  197
    x[10]     packing[46]  103
    x[10]     packing[48]  60
    x[10]     packing[49]  192
    x[11]     OBJ       152
    x[11]     packing[0]  21
    x[11]     packing[2]  138
    x[11]     packing[3]  157
    x[11]     packing[6]  195
    x[11]     packing[7]  128
    x[11]     packing[8]  45
    x[11]     packing[11]  2
    x[11]     packing[12]  134
    x[11]     packing[13]  63
    x[11]     packing[14]  178
    x[11]     packing[15]  75
    x[11]     packing[16]  189
    x[11]     packing[17]  190
    x[11]     packing[18]  122
    x[11]     packing[19]  146
    x[11]     packing[21]  96
    x[11]     packing[22]  157
    x[11]     packing[23]  189
    x[11]     packing[24]  18
    x[11]     packing[25]  50
    x[11]     packing[26]  9
    x[11]     packing[28]  183
    x[11]     packing[29]  92
    x[11]     packing[30]  74
    x[11]     packing[31]  35
    x[11]     packing[32]  114
    x[11]     packing[33]  123
    x[11]     packing[35]  133
    x[11]     packing[37]  24
    x[11]     packing[38]  185
    x[11]     packing[39]  12
    x[11]     packing[40]  35
    x[11]     packing[44]  103
    x[11]     packing[47]  10
    x[11]     packing[48]  22
    x[12]     OBJ       143
    x[12]     packing[0]  9
    x[12]     packing[1]  49
    x[12]     packing[3]  34
    x[12]     packing[4]  81
    x[12]     packing[6]  24
    x[12]     packing[7]  12
    x[12]     packing[8]  63
    x[12]     packing[9]  161
    x[12]     packing[10]  80
    x[12]     packing[11]  120
    x[12]     packing[12]  81
    x[12]     packing[13]  199
    x[12]     packing[14]  13
    x[12]     packing[16]  83
    x[12]     packing[17]  187
    x[12]     packing[18]  46
    x[12]     packing[20]  21
    x[12]     packing[21]  185
    x[12]     packing[22]  5
    x[12]     packing[23]  189
    x[12]     packing[24]  158
    x[12]     packing[25]  115
    x[12]     packing[26]  156
    x[12]     packing[29]  152
    x[12]     packing[30]  121
    x[12]     packing[31]  30
    x[12]     packing[32]  135
    x[12]     packing[33]  185
    x[12]     packing[34]  119
    x[12]     packing[35]  190
    x[12]     packing[37]  148
    x[12]     packing[38]  55
    x[12]     packing[39]  68
    x[12]     packing[40]  82
    x[12]     packing[41]  152
    x[12]     packing[42]  149
    x[12]     packing[43]  76
    x[12]     packing[44]  170
    x[12]     packing[45]  78
    x[12]     packing[46]  27
    x[12]     packing[47]  55
    x[12]     packing[48]  29
    x[12]     packing[49]  150
    x[13]     OBJ       132
    x[13]     packing[1]  141
    x[13]     packing[2]  6
    x[13]     packing[3]  70
    x[13]     packing[5]  188
    x[13]     packing[6]  90
    x[13]     packing[7]  131
    x[13]     packing[8]  14
    x[13]     packing[9]  52
    x[13]     packing[10]  175
    x[13]     packing[12]  166
    x[13]     packing[13]  4
    x[13]     packing[15]  132
    x[13]     packing[16]  64
    x[13]     packing[17]  166
    x[13]     packing[18]  12
    x[13]     packing[19]  89
    x[13]     packing[21]  35
    x[13]     packing[22]  154
    x[13]     packing[23]  68
    x[13]     packing[24]  45
    x[13]     packing[25]  75
    x[13]     packing[26]  26
    x[13]     packing[27]  8
    x[13]     packing[28]  189
    x[13]     packing[29]  10
    x[13]     packing[33]  52
    x[13]     packing[34]  82
    x[13]     packing[35]  170
    x[13]     packing[36]  26
    x[13]     packing[38]  7
    x[13]     packing[39]  106
    x[13]     packing[40]  157
    x[13]     packing[43]  77
    x[13]     packing[45]  74
    x[13]     packing[46]  67
    x[13]     packing[47]  9
    x[14]     OBJ       57
    x[14]     packing[0]  184
    x[14]     packing[4]  117
    x[14]     packing[5]  142
    x[14]     packing[6]  124
    x[14]     packing[7]  46
    x[14]     packing[9]  161
    x[14]     packing[10]  7
    x[14]     packing[11]  47
    x[14]     packing[12]  137
    x[14]     packing[13]  164
    x[14]     packing[14]  83
    x[14]     packing[15]  32
    x[14]     packing[17]  151
    x[14]     packing[18]  157
    x[14]     packing[19]  149
    x[14]     packing[20]  152
    x[14]     packing[21]  135
    x[14]     packing[23]  165
    x[14]     packing[24]  162
    x[14]     packing[25]  94
    x[14]     packing[26]  102
    x[14]     packing[27]  104
    x[14]     packing[28]  42
    x[14]     packing[31]  166
    x[14]     packing[33]  131
    x[14]     packing[37]  93
    x[14]     packing[38]  192
    x[14]     packing[39]  36
    x[14]     packing[40]  42
    x[14]     packing[41]  176
    x[14]     packing[42]  173
    x[14]     packing[43]  101
    x[14]     packing[44]  73
    x[14]     packing[45]  7
    x[14]     packing[46]  54
    x[15]     OBJ       119
    x[15]     packing[1]  6
    x[15]     packing[3]  109
    x[15]     packing[4]  119
    x[15]     packing[5]  33
    x[15]     packing[6]  150
    x[15]     packing[7]  160
    x[15]     packing[8]  106
    x[15]     packing[11]  33
    x[15]     packing[14]  180
    x[15]     packing[15]  125
    x[15]     packing[17]  44
    x[15]     packing[18]  198
    x[15]     packing[19]  65
    x[15]     packing[20]  42
    x[15]     packing[23]  15
    x[15]     packing[24]  129
    x[15]     packing[25]  107
    x[15]     packing[26]  188
    x[15]     packing[27]  168
    x[15]     packing[28]  1
    x[15]     packing[29]  21
    x[15]     packing[30]  94
    x[15]     packing[31]  56
    x[15]     packing[33]  195
    x[15]     packing[34]  179
    x[15]     packing[36]  36
    x[15]     packing[37]  18
    x[15]     packing[43]  172
    x[15]     packing[44]  95
    x[15]     packing[45]  128
    x[15]     packing[46]  159
    x[15]     packing[47]  172
    x[15]     packing[49]  94
    x[16]     OBJ       99
    x[16]     packing[1]  82
    x[16]     packing[3]  28
    x[16]     packing[4]  87
    x[16]     packing[5]  67
    x[16]     packing[6]  63
    x[16]     packing[7]  33
    x[16]     packing[8]  41
    x[16]     packing[9]  142
    x[16]     packing[11]  165
    x[16]     packing[13]  4
    x[16]     packing[15]  194
    x[16]     packing[16]  27
    x[16]     packing[18]  74
    x[16]     packing[20]  134
    x[16]     packing[21]  186
    x[16]     packing[22]  128
    x[16]     packing[23]  111
    x[16]     packing[26]  54
    x[16]     packing[27]  73
    x[16]     packing[28]  40
    x[16]     packing[30]  163
    x[16]     packing[31]  137
    x[16]     packing[32]  177
    x[16]     packing[34]  99
    x[16]     packing[36]  168
    x[16]     packing[38]  22
    x[16]     packing[39]  107
    x[16]     packing[42]  175
    x[16]     packing[44]  158
    x[16]     packing[45]  17
    x[16]     packing[46]  66
    x[16]     packing[47]  151
    x[16]     packing[48]  102
    x[16]     R51       1
    x[17]     OBJ       54
    x[17]     packing[0]  165
    x[17]     packing[1]  166
    x[17]     packing[2]  126
    x[17]     packing[3]  168
    x[17]     packing[4]  171
    x[17]     packing[6]  186
    x[17]     packing[7]  73
    x[17]     packing[10]  65
    x[17]     packing[11]  181
    x[17]     packing[12]  98
    x[17]     packing[13]  121
    x[17]     packing[16]  187
    x[17]     packing[18]  30
    x[17]     packing[19]  118
    x[17]     packing[20]  39
    x[17]     packing[21]  76
    x[17]     packing[22]  143
    x[17]     packing[24]  20
    x[17]     packing[25]  151
    x[17]     packing[26]  67
    x[17]     packing[27]  196
    x[17]     packing[28]  105
    x[17]     packing[29]  186
    x[17]     packing[31]  65
    x[17]     packing[32]  24
    x[17]     packing[33]  10
    x[17]     packing[35]  132
    x[17]     packing[36]  60
    x[17]     packing[39]  47
    x[17]     packing[41]  87
    x[17]     packing[42]  53
    x[17]     packing[44]  177
    x[17]     packing[46]  70
    x[17]     packing[47]  69
    x[17]     packing[48]  171
    x[17]     packing[49]  137
    x[18]     OBJ       163
    x[18]     packing[0]  153
    x[18]     packing[1]  82
    x[18]     packing[2]  58
    x[18]     packing[5]  106
    x[18]     packing[6]  187
    x[18]     packing[7]  6
    x[18]     packing[8]  139
    x[18]     packing[9]  77
    x[18]     packing[10]  113
    x[18]     packing[11]  36
    x[18]     packing[14]  154
    x[18]     packing[16]  38
    x[18]     packing[17]  81
    x[18]     packing[18]  132
    x[18]     packing[19]  39
    x[18]     packing[20]  140
    x[18]     packing[21]  180
    x[18]     packing[22]  23
    x[18]     packing[23]  194
    x[18]     packing[25]  111
    x[18]     packing[26]  4
    x[18]     packing[27]  14
    x[18]     packing[31]  68
    x[18]     packing[32]  173
    x[18]     packing[33]  169
    x[18]     packing[36]  58
    x[18]     packing[38]  101
    x[18]     packing[39]  32
    x[18]     packing[40]  192
    x[18]     packing[44]  3
    x[18]     packing[45]  131
    x[18]     packing[46]  86
    x[18]     packing[47]  125
    x[18]     packing[48]  30
    x[19]     OBJ       25
    x[19]     packing[1]  197
    x[19]     packing[2]  32
    x[19]     packing[5]  115
    x[19]     packing[6]  146
    x[19]     packing[7]  55
    x[19]     packing[8]  114
    x[19]     packing[9]  68
    x[19]     packing[10]  172
    x[19]     packing[11]  152
    x[19]     packing[12]  42
    x[19]     packing[13]  17
    x[19]     packing[14]  65
    x[19]     packing[15]  147
    x[19]     packing[16]  117
    x[19]     packing[17]  22
    x[19]     packing[18]  35
    x[19]     packing[20]  168
    x[19]     packing[21]  176
    x[19]     packing[22]  151
    x[19]     packing[23]  154
    x[19]     packing[24]  151
    x[19]     packing[25]  62
    x[19]     packing[26]  60
    x[19]     packing[27]  5
    x[19]     packing[28]  37
    x[19]     packing[29]  98
    x[19]     packing[30]  49
    x[19]     packing[32]  39
    x[19]     packing[33]  123
    x[19]     packing[34]  39
    x[19]     packing[35]  197
    x[19]     packing[36]  51
    x[19]     packing[37]  172
    x[19]     packing[38]  161
    x[19]     packing[39]  144
    x[19]     packing[40]  162
    x[19]     packing[41]  1
    x[19]     packing[42]  86
    x[19]     packing[43]  11
    x[19]     packing[44]  109
    x[19]     packing[47]  43
    x[19]     packing[49]  182
    x[20]     OBJ       167
    x[20]     packing[0]  165
    x[20]     packing[1]  89
    x[20]     packing[3]  9
    x[20]     packing[4]  31
    x[20]     packing[6]  97
    x[20]     packing[7]  151
    x[20]     packing[8]  117
    x[20]     packing[9]  166
    x[20]     packing[10]  135
    x[20]     packing[11]  107
    x[20]     packing[13]  113
    x[20]     packing[14]  162
    x[20]     packing[15]  70
    x[20]     packing[16]  54
    x[20]     packing[17]  152
    x[20]     packing[18]  135
    x[20]     packing[24]  173
    x[20]     packing[25]  94
    x[20]     packing[26]  151
    x[20]     packing[27]  74
    x[20]     packing[28]  153
    x[20]     packing[29]  190
    x[20]     packing[30]  123
    x[20]     packing[31]  76
    x[20]     packing[32]  13
    x[20]     packing[33]  35
    x[20]     packing[34]  133
    x[20]     packing[35]  22
    x[20]     packing[36]  127
    x[20]     packing[37]  23
    x[20]     packing[39]  82
    x[20]     packing[40]  102
    x[20]     packing[41]  178
    x[20]     packing[42]  102
    x[20]     packing[43]  69
    x[20]     packing[44]  126
    x[20]     packing[47]  186
    x[20]     packing[48]  185
    x[20]     R51       1
    MARKER    'MARKER'                 'INTEND'
RHS
    RHS1      packing[0]  721
    RHS1      packing[1]  680
    RHS1      packing[2]  590
    RHS1      packing[3]  637
    RHS1      packing[4]  486
    RHS1      packing[5]  782
    RHS1      packing[6]  883
    RHS1      packing[7]  640
    RHS1      packing[8]  723
    RHS1      packing[9]  769
    RHS1      packing[10]  835
    RHS1      packing[11]  838
    RHS1      packing[12]  599
    RHS1      packing[13]  720
    RHS1      packing[14]  913
    RHS1      packing[15]  786
    RHS1      packing[16]  795
    RHS1      packing[17]  851
    RHS1      packing[18]  843
    RHS1      packing[19]  835
    RHS1      packing[20]  783
    RHS1      packing[21]  1055
    RHS1      packing[22]  774
    RHS1      packing[23]  901
    RHS1      packing[24]  802
    RHS1      packing[25]  876
    RHS1      packing[26]  932
    RHS1      packing[27]  792
    RHS1      packing[28]  866
    RHS1      packing[29]  967
    RHS1      packing[30]  836
    RHS1      packing[31]  774
    RHS1      packing[32]  517
    RHS1      packing[33]  1073
    RHS1      packing[34]  756
    RHS1      packing[35]  775
    RHS1      packing[36]  663
    RHS1      packing[37]  597
    RHS1      packing[38]  711
    RHS1      packing[39]  683
    RHS1      packing[40]  576
    RHS1      packing[41]  553
    RHS1      packing[42]  572
    RHS1      packing[43]  634
    RHS1      packing[44]  847
    RHS1      packing[45]  687
    RHS1      packing[46]  667
    RHS1      packing[47]  928
    RHS1      packing[48]  703
    RHS1      packing[49]  788
    RHS1      R51       5
BOUNDS
 BV BND1      x[1]    
 BV BND1      x[2]    
 BV BND1      x[3]    
 BV BND1      x[4]    
 BV BND1      x[5]    
 BV BND1      x[6]    
 BV BND1      x[7]    
 BV BND1      x[8]    
 BV BND1      x[9]    
 BV BND1      x[10]   
 BV BND1      x[11]   
 BV BND1      x[12]   
 BV BND1      x[13]   
 BV BND1      x[14]   
 BV BND1      x[15]   
 BV BND1      x[16]   
 BV BND1      x[17]   
 BV BND1      x[18]   
 BV BND1      x[19]   
 BV BND1      x[20]   
ENDATA
